(set-logic HORN)
(declare-fun state (Bool Bool Bool Int (Array Int Int) Int (Array Int Int) Int Int Int) Bool)
(assert (forall ((|!pc[2]| Bool) (|!pc[1]| Bool) (|!pc[0]| Bool) (|!{N}| Int) (|!{a2.2}| (Array Int Int)) (|!{i}| Int) (|!{a1.1}| (Array Int Int)) (|!{x}| Int) (|arrlambda_0| Int) (|proph0| Int) (|!{a1.1}.next| (Array Int Int)) (|!{a2.2}.next| (Array Int Int)) (|nd_char<0>| Int) (|!{x}.next| Int) (|arrlambda_0.next| Int) (|nd<0>| Int) (|%{a2.2}#1| (Array Int Int)) (|!{N}.next| Int) (|!{i}.next| Int) (|%{x}#1| Int) (|%{a1.1}#1| (Array Int Int)) (|!pc[1].next| Bool) (|!pc[0].next| Bool) (|!pc[2].next| Bool) (|proph0.next| Int)) (=> (and (and (not |!pc[0]|) (not |!pc[1]|)) (not |!pc[2]|)) (state |!pc[2]| |!pc[1]| |!pc[0]| |!{N}| |!{a2.2}| |!{i}| |!{a1.1}| |!{x}| |arrlambda_0| |proph0|))))
(assert (forall ((|!pc[2]| Bool) (|!pc[1]| Bool) (|!pc[0]| Bool) (|!{N}| Int) (|!{a2.2}| (Array Int Int)) (|!{i}| Int) (|!{a1.1}| (Array Int Int)) (|!{x}| Int) (|arrlambda_0| Int) (|proph0| Int) (|!{a1.1}.next| (Array Int Int)) (|!{a2.2}.next| (Array Int Int)) (|nd_char<0>| Int) (|!{x}.next| Int) (|arrlambda_0.next| Int) (|nd<0>| Int) (|%{a2.2}#1| (Array Int Int)) (|!{N}.next| Int) (|!{i}.next| Int) (|%{x}#1| Int) (|%{a1.1}#1| (Array Int Int)) (|!pc[1].next| Bool) (|!pc[0].next| Bool) (|!pc[2].next| Bool) (|proph0.next| Int)) (=> (and (state |!pc[2]| |!pc[1]| |!pc[0]| |!{N}| |!{a2.2}| |!{i}| |!{a1.1}| |!{x}| |arrlambda_0| |proph0|) (let ((.def_20 (not |!pc[0]|))) (let ((.def_21 (not |!pc[1]|))) (let ((.def_23 (not |!pc[2]|))) (let ((.def_25 (select |!{a1.1}| proph0))) (let ((.def_27 (select |!{a1.1}.next| proph0))) (let ((.def_29 (= |!{a1.1}| |!{a1.1}.next|))) (let ((.def_30 (not .def_29))) (let ((.def_32 (select |!{a2.2}| proph0))) (let ((.def_34 (select |!{a2.2}.next| proph0))) (let ((.def_36 (= |!{a2.2}| |!{a2.2}.next|))) (let ((.def_37 (not .def_36))) (let ((.def_40 (select |!{a1.1}| |!{x}|))) (let ((.def_44 (select |!{a2.2}| |!{x}|))) (let ((.def_48 (store |!{a2.2}| |!{i}| nd_char<0>))) (let ((.def_49 (select .def_48 proph0))) (let ((.def_51 (= |!{i}| proph0))) (let ((.def_53 (store |!{a1.1}| |!{i}| nd_char<0>))) (let ((.def_54 (select .def_53 proph0))) (let ((.def_58 (= |!{a2.2}.next| .def_48))) (let ((.def_59 (not .def_58))) (let ((.def_62 (select .def_48 |!{i}|))) (let ((.def_66 (select .def_53 |!{i}|))) (let ((.def_68 (= |!{a1.1}.next| .def_53))) (let ((.def_69 (not .def_68))) (let ((.def_104 (not |!pc[1].next|))) (let ((.def_108 (not |!pc[2].next|))) (let ((.def_109 (and (and .def_104 |!pc[0].next|) .def_108))) (let ((.def_112 (= .def_40 .def_44))) (let ((.def_115 (= |!{N}| |!{N}.next|))) (let ((.def_117 (= |!{i}| |!{i}.next|))) (let ((.def_119 (= |!{x}| |!{x}.next|))) (let ((.def_122 (<= |!{N}| |!{x}|))) (let ((.def_123 (not .def_122))) (let ((.def_128 (and .def_23 (and |!pc[1]| .def_20)))) (let ((.def_139 (and .def_117 (and .def_36 .def_115)))) (let ((.def_141 (and .def_29 (and (= (+ |!{x}| (* (- 1) |!{x}.next|)) (- 1)) .def_139)))) (let ((.def_144 (not |!pc[0].next|))) (let ((.def_146 (and .def_108 (and |!pc[1].next| .def_144)))) (let ((.def_162 (and .def_23 (and |!pc[1]| |!pc[0]|)))) (let ((.def_166 (<= |!{N}| |!{i}|))) (let ((.def_177 (and .def_23 (and |!pc[0]| .def_21)))) (let ((.def_192 (store |!{a1.1}.next| |!{i}.next| nd_char<0>))) (let ((.def_197 (store |!{a2.2}.next| |!{i}.next| nd_char<0>))) (let ((.def_216 (= |!{i}.next| proph0.next))) (and (or (= .def_25 .def_27) .def_30) (and (or (= .def_32 .def_34) .def_37) (and (or .def_30 (= (select |!{a1.1}.next| |!{x}|) .def_40)) (and (or .def_37 (= (select |!{a2.2}.next| |!{x}|) .def_44)) (and (and (or (= .def_32 .def_49) .def_51) (and (and (or .def_51 (= .def_25 .def_54)) (and (or (= .def_34 .def_49) .def_59) (and (and (and (or .def_59 (= (select |!{a2.2}.next| |!{i}|) .def_62)) (and (or (= (select |!{a1.1}.next| |!{i}|) .def_66) .def_69) (and (or .def_30 (= (select |!{a1.1}| |!{x}.next|) (select |!{a1.1}.next| |!{x}.next|))) (and (or .def_37 (= (select |!{a2.2}| |!{x}.next|) (select |!{a2.2}.next| |!{x}.next|))) (and (and (= nd_char<0> .def_62) (and (and (= nd_char<0> .def_66) (and (and (= arrlambda_0 arrlambda_0.next) (or (or (or (and (and (not (<= nd<0> 0)) (and (and (and (and (= |!{a2.2}.next| |%{a2.2}#1|) (= nd<0> |!{N}.next|)) (= |!{i}.next| 0)) (= |!{x}.next| |%{x}#1|)) (= |!{a1.1}.next| |%{a1.1}#1|))) (and (and (and .def_20 .def_21) .def_23) .def_109)) (or (or (and (and (and .def_29 (and (and (and (and .def_36 (not .def_112)) .def_115) .def_117) .def_119)) .def_123) (and (and .def_108 (and |!pc[1].next| |!pc[0].next|)) .def_128)) (and (and .def_123 (and .def_112 .def_141)) (and .def_128 .def_146))) (and (and .def_29 (and .def_119 (and .def_117 (and .def_115 (and .def_36 .def_122))))) (and .def_128 (and |!pc[2].next| (and .def_104 .def_144)))))) (and .def_141 (and .def_146 .def_162))) (or (and (and (not .def_166) (and .def_68 (and .def_119 (and (= (+ |!{i}| (* (- 1) |!{i}.next|)) (- 1)) (and .def_58 .def_115))))) (and .def_109 .def_177)) (and (and .def_166 (and .def_29 (and .def_139 (= |!{x}.next| 0)))) (and .def_146 .def_177))))) (not .def_162))) (= nd_char<0> (select .def_192 |!{i}.next|)))) (= nd_char<0> (select .def_197 |!{i}.next|))))))) (= proph0 proph0.next)) (or .def_69 (= .def_27 .def_54))))) (or (= (select |!{a1.1}.next| proph0.next) (select .def_192 proph0.next)) .def_216))) (or .def_216 (= (select |!{a2.2}.next| proph0.next) (select .def_197 proph0.next))))))))))))))))))))))))))))))))))))))))))))))))))))) (state |!pc[2].next| |!pc[1].next| |!pc[0].next| |!{N}.next| |!{a2.2}.next| |!{i}.next| |!{a1.1}.next| |!{x}.next| |arrlambda_0.next| |proph0.next|))))
(assert (forall ((|!pc[2]| Bool) (|!pc[1]| Bool) (|!pc[0]| Bool) (|!{N}| Int) (|!{a2.2}| (Array Int Int)) (|!{i}| Int) (|!{a1.1}| (Array Int Int)) (|!{x}| Int) (|arrlambda_0| Int) (|proph0| Int) (|!{a1.1}.next| (Array Int Int)) (|!{a2.2}.next| (Array Int Int)) (|nd_char<0>| Int) (|!{x}.next| Int) (|arrlambda_0.next| Int) (|nd<0>| Int) (|%{a2.2}#1| (Array Int Int)) (|!{N}.next| Int) (|!{i}.next| Int) (|%{x}#1| Int) (|%{a1.1}#1| (Array Int Int)) (|!pc[1].next| Bool) (|!pc[0].next| Bool) (|!pc[2].next| Bool) (|proph0.next| Int)) (=> (state |!pc[2]| |!pc[1]| |!pc[0]| |!{N}| |!{a2.2}| |!{i}| |!{a1.1}| |!{x}| |arrlambda_0| |proph0|) (or (not (and (not |!pc[2]|) (and |!pc[1]| |!pc[0]|))) (not (= |!{x}| proph0))))))
(check-sat)
